<number of tasks>
50

<cycle time>
1000

<order strength>
0.595


<task times>
1 151
2 52
3 155
4 270
5 151
6 90
7 117
8 156
9 231
10 70
11 33
12 33
13 253
14 88
15 180
16 99
17 131
18 94
19 84
20 96
21 123
22 71
23 273
24 288
25 97
26 45
27 202
28 123
29 122
30 127
31 268
32 21
33 27
34 117
35 42
36 127
37 174
38 141
39 295
40 37
41 176
42 160
43 281
44 212
45 90
46 118
47 138
48 82
49 113
50 28

<precedence relations>
1,8
2,8
3,8
4,8
5,37
6,35
7,8
7,9
7,10
7,11
8,12
8,13
8,14
8,15
8,16
8,17
9,37
10,16
10,19
10,26
10,27
11,16
11,17
11,19
11,21
12,18
12,19
12,20
12,21
12,22
13,18
13,19
13,20
13,22
14,18
14,19
14,20
14,21
14,23
14,25
15,18
15,19
15,20
15,24
15,25
15,26
16,18
16,20
16,23
16,24
16,28
16,29
17,22
18,37
19,35
20,33
20,35
20,36
21,24
21,26
21,29
21,30
21,33
22,23
22,24
22,25
22,26
23,37
24,37
25,27
25,28
26,43
26,49
27,29
27,30
27,32
27,33
28,31
28,43
28,50
29,35
30,35
31,36
32,36
32,37
33,34
34,37
35,38
35,39
35,40
35,41
35,42
35,43
36,48
36,49
37,44
37,45
37,46
37,47
39,48
41,48
42,50
44,50
45,50
46,49

<end>
